% Auto-generated by scripts/generate_dzn.py
% problem_type   = regex
% instance       = regex_54
% source_json    = instances_json/2_high_blowup/regex_54.json
% blowup         = 42.193548387096776
% representation = NFA

mode = 1;

var_count = 42;
n_constraints = 2;
Q = 16;
S = 2;
q0 = [1, 1];
F = [{16}, {15}];
weights = [8, 6, 3, 10, 10, 10, 5, 7, 3, 1, 4, 1, 5, 2, 10, 7, 1, 5, 9, 2, 7, 4, 2, 7, 10, 5, 5, 3, 6, 9, 5, 7, 8, 9, 7, 8, 6, 10, 10, 2, 3, 9];
d_dfa = array3d(1..2, 1..16, 1..2, [
  % k = 1
    0, 0,
    0, 0,
    0, 0,
    0, 0,
    0, 0,
    0, 0,
    0, 0,
    0, 0,
    0, 0,
    0, 0,
    0, 0,
    0, 0,
    0, 0,
    0, 0,
    0, 0,
    0, 0,

  % k = 2
    0, 0,
    0, 0,
    0, 0,
    0, 0,
    0, 0,
    0, 0,
    0, 0,
    0, 0,
    0, 0,
    0, 0,
    0, 0,
    0, 0,
    0, 0,
    0, 0,
    0, 0,
    0, 0
]);
d_nfa = array3d(1..2, 1..16, 1..2, [
  % k = 1
    {1, 2}, {1},
    {3}, {},
    {4}, {},
    {5}, {5},
    {6}, {6},
    {7}, {7},
    {8}, {8},
    {9}, {9},
    {10}, {10},
    {11}, {11},
    {12}, {12},
    {13}, {13},
    {14}, {14},
    {15}, {15},
    {16}, {16},
    {}, {},

  % k = 2
    {1}, {2},
    {2}, {3},
    {3}, {4},
    {4}, {5},
    {5}, {6},
    {6}, {7},
    {7}, {8},
    {8}, {9},
    {9}, {10},
    {10}, {11},
    {11}, {12},
    {12}, {13},
    {13}, {14},
    {14}, {15},
    {15}, {},
    {}, {}
]);
